param target := 9;
set E := 1 2 3 4 5 6 7 8 9 10 11 12 13 14 15 ;
param weight := 
  1  -10
  2  0
  3  9
  4  6
  5  7
  6  -12
  7  5
  8  11
  9  8
  10  -12
  11  1
  12  -3
  13  5
  14  -7
  15  -6
;
